p wcnf 161 322 323 
1 -102 122 0 
1 -52 -131 0 
1 158 -15 0 
1 26 15 0 
1 29 -38 0 
1 -6 -95 0 
1 -89 -35 0 
1 -67 -74 0 
1 80 -1 0 
1 131 -122 0 
1 32 130 0 
1 55 56 0 
1 149 110 0 
1 33 -128 0 
1 82 -145 0 
1 -65 -23 0 
1 -149 25 0 
1 144 67 0 
1 -39 -127 0 
1 117 45 0 
1 130 132 0 
1 73 130 0 
1 -8 5 0 
1 80 141 0 
1 -122 -3 0 
1 79 10 0 
1 -104 108 0 
1 114 118 0 
1 -160 159 0 
1 -39 -153 0 
1 24 -54 0 
1 96 -45 0 
1 -42 -101 0 
1 -40 113 0 
1 46 156 0 
1 48 57 0 
1 149 -157 0 
1 -76 -107 0 
1 61 -54 0 
1 -92 -29 0 
1 -10 -112 0 
1 8 -109 0 
1 101 -121 0 
1 110 46 0 
1 -76 -146 0 
1 85 18 0 
1 6 53 0 
1 99 25 0 
1 -61 38 0 
1 34 86 0 
1 138 -113 0 
1 -16 -111 0 
1 149 -50 0 
1 -64 2 0 
1 34 -42 0 
1 -120 46 0 
1 -15 -104 0 
1 -108 158 0 
1 4 -98 0 
1 -27 -156 0 
1 -51 -59 0 
1 25 129 0 
1 36 -78 0 
1 -86 122 0 
1 102 95 0 
1 84 6 0 
1 -76 87 0 
1 -27 -81 0 
1 -79 -48 0 
1 -140 -139 0 
1 80 -29 0 
1 -12 105 0 
1 -78 84 0 
1 153 -69 0 
1 156 -57 0 
1 108 145 0 
1 -74 85 0 
1 95 57 0 
1 -38 -91 0 
1 142 -135 0 
1 -150 86 0 
1 132 58 0 
1 -52 -84 0 
1 42 -123 0 
1 -22 70 0 
1 124 -69 0 
1 50 77 0 
1 37 113 0 
1 152 29 0 
1 -143 68 0 
1 -130 38 0 
1 -106 144 0 
1 -35 -145 0 
1 -24 -21 0 
1 108 112 0 
1 -25 -80 0 
1 65 -76 0 
1 -85 -1 0 
1 -132 67 0 
1 -85 46 0 
1 -135 79 0 
1 -46 -117 0 
1 161 58 0 
1 -23 119 0 
1 -140 23 0 
1 -130 -48 0 
1 -31 50 0 
1 -89 63 0 
1 97 -115 0 
1 11 -47 0 
1 19 138 0 
1 52 123 0 
1 -61 -36 0 
1 145 116 0 
1 69 -50 0 
1 51 138 0 
1 -88 -52 0 
1 -135 20 0 
1 -113 57 0 
1 155 -135 0 
1 -17 -158 0 
1 4 23 0 
1 145 -144 0 
1 150 65 0 
1 149 27 0 
1 18 133 0 
1 -141 -95 0 
1 -64 -94 0 
1 -58 -41 0 
1 51 111 0 
1 148 -149 0 
1 99 7 0 
1 -114 109 0 
1 70 -2 0 
1 48 -20 0 
1 95 -83 0 
1 145 -161 0 
1 131 -42 0 
1 147 -29 0 
1 81 152 0 
1 55 94 0 
1 104 143 0 
1 -54 62 0 
1 -8 78 0 
1 -18 -86 0 
1 10 145 0 
1 -156 148 0 
1 36 -97 0 
1 114 97 0 
1 -33 -23 0 
1 -99 -136 0 
1 -31 121 0 
1 -60 88 0 
1 76 -20 0 
1 -99 34 0 
1 -41 81 0 
1 74 160 0 
1 78 151 0 
1 -88 116 0 
1 -132 44 0 
1 -124 -81 0 
1 -80 121 0 
1 104 -115 0 
1 33 90 0 
1 -42 126 0 
1 123 -50 0 
1 -106 76 0 
1 100 114 0 
1 -61 -16 0 
1 9 36 0 
1 -109 -122 0 
1 -41 49 0 
1 -106 -14 0 
1 116 -59 0 
1 -154 -139 0 
1 -76 -35 0 
1 -120 -17 0 
1 -50 146 0 
1 -70 -34 0 
1 60 123 0 
1 5 157 0 
1 -117 -18 0 
1 91 -27 0 
1 -23 -108 0 
1 -41 79 0 
1 -148 -100 0 
1 -22 -17 0 
1 136 98 0 
1 -45 136 0 
1 -16 -93 0 
1 16 49 0 
1 160 -81 0 
1 54 60 0 
1 -21 -47 0 
1 -124 -129 0 
1 43 41 0 
1 71 88 0 
1 -82 -77 0 
1 114 55 0 
1 3 -149 0 
1 53 15 0 
1 -127 -150 0 
1 -104 35 0 
1 -68 18 0 
1 -13 -131 0 
1 156 -104 0 
1 -106 152 0 
1 -83 116 0 
1 -100 120 0 
1 121 9 0 
1 -141 -54 0 
1 -126 140 0 
1 -129 146 0 
1 131 -114 0 
1 1 49 0 
1 -73 76 0 
1 148 -10 0 
1 16 -159 0 
1 -27 -136 0 
1 45 124 0 
1 7 -6 0 
1 20 -64 0 
1 26 -109 0 
1 47 -14 0 
1 26 -20 0 
1 -147 145 0 
1 -56 113 0 
1 28 86 0 
1 41 21 0 
1 75 -21 0 
1 -4 -160 0 
1 -75 -17 0 
1 86 -131 0 
1 39 -122 0 
1 -158 87 0 
1 -58 -52 0 
1 -33 -143 0 
1 158 121 0 
1 -114 -51 0 
1 -97 -6 0 
1 17 -108 0 
1 -13 -32 0 
1 -76 -102 0 
1 69 156 0 
1 81 112 0 
1 49 140 0 
1 89 -99 0 
1 -149 101 0 
1 52 87 0 
1 9 -21 0 
1 -52 142 0 
1 59 123 0 
1 -108 130 0 
1 -92 -48 0 
1 -81 -93 0 
1 -119 -65 0 
1 43 -75 0 
1 -96 143 0 
1 107 -44 0 
1 35 -103 0 
1 -76 -51 0 
1 136 98 0 
1 54 38 0 
1 -110 107 0 
1 -90 -42 0 
1 145 -161 0 
1 -127 59 0 
1 -63 -46 0 
1 38 -143 0 
1 -144 160 0 
1 154 97 0 
1 -99 -134 0 
1 -96 151 0 
1 151 -147 0 
1 -159 129 0 
1 13 57 0 
1 -118 156 0 
1 -79 -26 0 
1 90 -73 0 
1 -106 -142 0 
1 -71 12 0 
1 123 -158 0 
1 -35 138 0 
1 51 113 0 
1 42 -69 0 
1 23 -150 0 
1 -48 9 0 
1 13 124 0 
1 -149 129 0 
1 10 134 0 
1 -93 -78 0 
1 54 24 0 
1 64 140 0 
1 138 44 0 
1 -43 -29 0 
1 153 59 0 
1 73 138 0 
1 -51 -159 0 
1 65 126 0 
1 -125 -101 0 
1 -98 140 0 
1 -25 -14 0 
1 -120 -142 0 
1 61 -100 0 
1 -85 66 0 
1 -146 63 0 
1 -135 -111 0 
1 -25 138 0 
1 -158 5 0 
1 45 161 0 
1 77 -128 0 
1 115 45 0 
1 -35 16 0 
1 -16 -124 0 
1 -71 8 0 
1 -62 -121 0 
1 59 124 0 
1 -103 31 0 
1 -69 13 0 
1 -145 -32 0 
1 55 -119 0 
1 -61 -32 0 
